p tw 165 494
0 1
0 150
0 151
1 64
1 86
1 155
1 156
1 162
1 163
2 3
2 23
2 92
2 116
2 144
2 145
2 146
3 34
4 5
4 6
4 7
4 8
4 9
4 10
4 21
4 55
4 88
4 109
5 6
5 7
5 8
5 9
5 10
5 112
5 147
5 160
6 7
6 8
6 9
6 10
6 164
7 8
7 9
7 10
7 70
8 9
8 10
8 24
9 10
9 56
9 89
9 149
10 93
10 94
10 95
11 12
11 39
11 108
12 40
13 14
13 78
13 161
14 96
15 16
15 17
15 18
15 19
15 36
15 52
15 74
15 75
15 76
15 77
16 17
16 18
16 19
16 144
17 18
17 19
17 69
17 90
17 91
17 92
18 19
18 68
18 82
18 83
18 84
19 53
19 140
20 21
20 34
20 45
20 54
20 73
20 145
20 158
21 55
21 88
21 109
22 23
22 26
22 122
22 123
22 124
23 92
23 116
23 144
23 145
23 146
24 93
25 26
25 27
25 28
25 29
25 30
25 31
25 130
25 131
25 132
26 27
26 28
26 29
26 30
26 31
26 122
26 123
26 124
27 28
27 29
27 30
27 31
27 138
28 29
28 30
28 31
28 81
28 106
28 107
29 30
29 31
29 152
30 31
30 133
31 49
31 153
31 159
32 33
32 47
32 48
33 128
34 45
34 54
34 73
34 145
34 158
35 36
35 37
35 38
35 61
35 120
35 121
36 37
36 38
36 52
36 74
36 75
36 76
36 77
37 38
37 137
38 60
38 117
38 118
38 119
39 40
39 41
39 108
40 41
41 49
41 50
41 51
42 43
42 44
42 45
42 46
42 100
43 44
43 45
43 46
43 62
43 125
44 45
44 46
44 102
44 150
44 156
44 157
45 46
45 54
45 73
45 145
45 158
46 63
46 151
46 163
47 48
47 128
47 129
48 110
48 126
48 127
49 50
49 51
49 153
49 159
50 51
50 143
50 147
50 148
50 149
51 108
51 111
51 112
52 53
52 74
52 75
52 76
52 77
53 140
54 55
54 56
54 57
54 58
54 73
54 145
54 158
55 56
55 57
55 58
55 88
55 109
56 57
56 58
56 89
56 149
57 58
57 71
58 136
58 143
59 60
59 61
59 62
59 63
59 85
59 86
59 87
60 61
60 62
60 63
60 117
60 118
60 119
61 62
61 63
61 120
61 121
62 63
62 125
63 151
63 163
64 65
64 66
64 67
64 86
64 155
64 156
64 162
64 163
65 66
65 67
65 79
65 113
65 114
66 67
66 80
66 100
66 101
66 102
67 154
68 69
68 82
68 83
68 84
69 90
69 91
69 92
70 88
70 89
71 83
71 95
71 109
71 110
72 73
72 116
73 145
73 158
74 75
74 76
74 77
74 137
75 76
75 77
75 91
75 119
75 140
76 77
76 82
76 127
76 139
77 97
78 79
78 80
78 81
78 161
79 80
79 81
79 113
79 114
80 81
80 100
80 101
80 102
81 106
81 107
82 83
82 84
82 127
82 139
83 84
83 95
83 109
83 110
84 94
84 126
84 129
85 86
85 87
85 115
86 87
86 155
86 156
86 162
86 163
87 104
87 117
87 121
88 89
88 109
89 149
90 91
90 92
90 118
90 125
91 92
91 119
91 140
92 116
92 144
92 145
92 146
93 94
93 95
94 95
94 126
94 129
95 109
95 110
96 114
96 161
97 139
98 99
98 101
98 107
98 113
98 122
99 124
99 132
99 134
99 146
100 101
100 102
101 102
101 107
101 113
101 122
102 150
102 156
102 157
103 104
103 105
103 120
103 141
104 105
104 117
104 121
105 142
106 107
106 152
107 113
107 122
108 111
108 112
109 110
110 126
110 127
111 112
111 131
111 135
111 148
111 159
112 147
112 160
113 114
113 122
114 161
115 162
116 144
116 145
116 146
117 118
117 119
117 121
118 119
118 125
119 140
120 121
120 141
122 123
122 124
123 124
123 130
123 138
124 132
124 134
124 146
126 127
126 129
127 139
128 129
130 131
130 132
130 138
131 132
131 135
131 148
131 159
132 134
132 146
133 153
134 135
134 136
134 146
135 136
135 148
135 159
136 143
141 142
143 147
143 148
143 149
144 145
144 146
145 146
145 158
147 148
147 149
147 160
148 149
148 159
150 151
150 156
150 157
151 163
153 159
154 155
155 156
155 162
155 163
156 157
156 162
156 163
157 158
160 164
162 163
